language Essence 1.3

letting blksize_delta be function(1 --> 7, 2 --> 7, 3 --> 7, 4 --> 7, 5 --> 7, 6 --> 7, 7 --> 7, 8 --> 7, 9 --> 7)
letting maxcars be function(1 --> 9, 2 --> 9, 3 --> 9, 4 --> 9, 5 --> 9, 6 --> 10, 7 --> 10, 8 --> 10, 9 --> 9)
letting n_cars be 237
letting n_classes be 78
letting n_options be 9
letting quantity be
        function(1 --> 3, 2 --> 3, 3 --> 3, 4 --> 3, 5 --> 3, 6 --> 3, 7 --> 3, 8 --> 3, 9 --> 3, 10 --> 3, 11 --> 3,
                 12 --> 3, 13 --> 3, 14 --> 3, 15 --> 6, 16 --> 3, 17 --> 3, 18 --> 3, 19 --> 3, 20 --> 3, 21 --> 3,
                 22 --> 3, 23 --> 3, 24 --> 3, 25 --> 3, 26 --> 3, 27 --> 3, 28 --> 3, 29 --> 3, 30 --> 3, 31 --> 3,
                 32 --> 3, 33 --> 3, 34 --> 3, 35 --> 3, 36 --> 3, 37 --> 3, 38 --> 3, 39 --> 3, 40 --> 3, 41 --> 3,
                 42 --> 3, 43 --> 3, 44 --> 3, 45 --> 3, 46 --> 3, 47 --> 3, 48 --> 3, 49 --> 3, 50 --> 3, 51 --> 3,
                 52 --> 3, 53 --> 3, 54 --> 3, 55 --> 3, 56 --> 3, 57 --> 3, 58 --> 3, 59 --> 3, 60 --> 3, 61 --> 3,
                 62 --> 3, 63 --> 3, 64 --> 3, 65 --> 3, 66 --> 3, 67 --> 3, 68 --> 3, 69 --> 3, 70 --> 3, 71 --> 3,
                 72 --> 3, 73 --> 3, 74 --> 3, 75 --> 3, 76 --> 3, 77 --> 3, 78 --> 3)
letting usage be
        relation((1, 9), (2, 6), (2, 8), (3, 5), (3, 9), (4, 9), (5, 1), (5, 7), (5, 9), (6, 5), (7, 8), (8, 7), (9, 3),
                 (9, 4), (10, 4), (10, 5), (11, 9), (12, 9), (13, 5), (14, 1), (15, 2), (16, 9), (17, 9), (18, 9),
                 (19, 9), (20, 9), (21, 3), (22, 8), (23, 1), (24, 9), (25, 1), (26, 2), (27, 9), (28, 4), (29, 4),
                 (30, 3), (30, 8), (30, 9), (31, 1), (32, 1), (32, 6), (33, 9), (34, 4), (35, 9), (36, 9), (37, 3),
                 (38, 3), (39, 9), (40, 3), (41, 1), (41, 9), (42, 5), (43, 9), (44, 3), (45, 9), (46, 1), (47, 9),
                 (48, 4), (49, 9), (50, 2), (51, 6), (52, 3), (53, 9), (54, 9), (55, 9), (56, 1), (56, 5), (56, 6),
                 (56, 9), (57, 9), (58, 9), (59, 9), (60, 9), (61, 1), (62, 6), (63, 2), (64, 9), (65, 9), (66, 4),
                 (66, 6), (67, 4), (68, 5), (69, 9), (70, 9), (71, 4), (71, 5), (71, 7), (72, 9), (73, 2), (74, 3),
                 (74, 5), (75, 9), (76, 9), (77, 8), (78, 1))
$ Visualisation for usage
$  1  9
$  2  6
$  2  8
$  3  5
$  3  9
$  4  9
$  5  1
$  5  7
$  5  9
$  6  5
$  7  8
$  8  7
$  9  3
$  9  4
$ 10  4
$ 10  5
$ 11  9
$ 12  9
$ 13  5
$ 14  1
$ 15  2
$ 16  9
$ 17  9
$ 18  9
$ 19  9
$ 20  9
$ 21  3
$ 22  8
$ 23  1
$ 24  9
$ 25  1
$ 26  2
$ 27  9
$ 28  4
$ 29  4
$ 30  3
$ 30  8
$ 30  9
$ 31  1
$ 32  1
$ 32  6
$ 33  9
$ 34  4
$ 35  9
$ 36  9
$ 37  3
$ 38  3
$ 39  9
$ 40  3
$ 41  1
$ 41  9
$ 42  5
$ 43  9
$ 44  3
$ 45  9
$ 46  1
$ 47  9
$ 48  4
$ 49  9
$ 50  2
$ 51  6
$ 52  3
$ 53  9
$ 54  9
$ 55  9
$ 56  1
$ 56  5
$ 56  6
$ 56  9
$ 57  9
$ 58  9
$ 59  9
$ 60  9
$ 61  1
$ 62  6
$ 63  2
$ 64  9
$ 65  9
$ 66  4
$ 66  6
$ 67  4
$ 68  5
$ 69  9
$ 70  9
$ 71  4
$ 71  5
$ 71  7
$ 72  9
$ 73  2
$ 74  3
$ 74  5
$ 75  9
$ 76  9
$ 77  8
$ 78  1

